(declare-const |phi_main____CPAchecker_TMP_4:351:358:630:672| Int)
(declare-const __VERIFIER_assert__cond___7 Int)
(declare-const __VERIFIER_assert__cond___3 Int)
(declare-const |havoc:35:66:353:625:667| Int)
(declare-const |phi___tmp_259_0:404:517:637| Int)
(declare-const __VERIFIER_assert__cond___18 Int)
(declare-const |phi___VERIFIER_assert__cond___3:343:346:355:627:669| Int)
(declare-const |havoc:29:65:362:634:676| Int)
(declare-const |__VERIFIER_assert__cond___4':366:387:620:662| Int)
(declare-const |main__t':147:167:174:227:530:650| Int)
(declare-const havoc Int)
(declare-const |__VERIFIER_assert__cond___7':367:383:616:658| Int)
(declare-const |havoc:28:64:341:624:666| Int)
(declare-const |__VERIFIER_assert__cond___3':365:388:621:663| Int)
(declare-const |phi___VERIFIER_assert__cond___0:400:521:641| Int)
(declare-const |phi___VERIFIER_assert__cond___11:399:522:642| Int)
(declare-const |phi___VERIFIER_assert__cond:401:520:640| Int)
(declare-const |main____CPAchecker_TMP_0':148:169:176:229:532:652| Int)
(declare-const __VERIFIER_assert__cond___15 Int)
(declare-const |phi___tmp_383_0:405:516:636| Int)
(declare-const |havoc:3:62:635| Int)
(declare-const |phi_main__t:352:357:629:671| Int)
(declare-const __VERIFIER_assert__cond___8 Int)
(declare-const |__VERIFIER_assert__cond___17':150:168:175:228:531:651| Int)
(declare-const __VERIFIER_assert__cond___11 Int)
(declare-const |phi___VERIFIER_assert__cond___4:342:347:356:628:670| Int)
(declare-const |K:381:382:615:657| Int)
(declare-const |phi___VERIFIER_assert__cond___3:350:359:631:673| Int)
(declare-const |__tmp_383_0':146:170:177:230:533:653| Int)
(declare-const |main____CPAchecker_TMP_6':369:386:619:661| Int)
(declare-const |phi_main__t:344:345:354:626:668| Int)
(declare-const __VERIFIER_assert__cond___4 Int)
(declare-const |phi___VERIFIER_assert__cond___4:349:360:632:674| Int)
(declare-const |phi___VERIFIER_assert__cond___15:396:525:645| Int)
(declare-const |phi_main__t:403:518:638| Int)
(declare-const main____CPAchecker_TMP_4 Int)
(declare-const |main____CPAchecker_TMP_0___0':149:172:179:232:535:655| Int)
(declare-const |havoc:9:63:145:225:233:536:656| Int)
(declare-const __VERIFIER_assert__cond___0 Int)
(declare-const |__VERIFIER_assert__cond___18':151:171:178:231:534:654| Int)
(declare-const __VERIFIER_assert__cond___12 Int)
(declare-const __VERIFIER_assert__cond Int)
(declare-const |phi___VERIFIER_assert__cond___16:395:526:646| Int)
(declare-const main____CPAchecker_TMP_3 Int)
(declare-const |__VERIFIER_assert__cond___8':368:384:617:659| Int)
(declare-const main____CPAchecker_TMP_6 Int)
(declare-const |main__t':147:385:618:660| Int)
(declare-const |main____CPAchecker_TMP_4':364:389:622:664| Int)
(declare-const |phi_main____CPAchecker_TMP_6:348:361:633:675| Int)
(declare-const __tmp_383_0 Int)
(declare-const |phi___VERIFIER_assert__cond___18:393:528:648| Int)
(declare-const |phi_main____CPAchecker_TMP_0:402:519:639| Int)
(declare-const |phi___VERIFIER_assert__cond___12:398:523:643| Int)
(declare-const main____CPAchecker_TMP_0___0 Int)
(declare-const __VERIFIER_assert__cond___17 Int)
(declare-const |main____CPAchecker_TMP_3':363:390:623:665| Int)
(declare-const |phi___VERIFIER_assert__cond___17:394:527:647| Int)
(declare-const |phi_main____CPAchecker_TMP_0___0:397:524:644| Int)
(declare-const __VERIFIER_assert__cond___16 Int)
(declare-const |K:165:166:173:226:529:649| Int)
(assert (and (<= (+ (- havoc) 1) 0) (not (= (+ (- havoc) 1) 0))
               (or (and (not (= |havoc:3:62:635| 0))
                          (not (= (ite (<= (+ (- havoc) 1) 0) 1 0) 0))
                          (= (+ (- |phi___tmp_383_0:405:516:636|) __tmp_383_0) 0)
                          (= (+ (- |phi___tmp_259_0:404:517:637|)
                                  |havoc:3:62:635|) 0)
                          (= (- |phi_main__t:403:518:638|) 0)
                          (= (+ (- |phi_main____CPAchecker_TMP_0:402:519:639|)
                                  |havoc:3:62:635|) 0)
                          (= (+ (- |phi___VERIFIER_assert__cond:401:520:640|)
                                  1) 0)
                          (= (+ (- |phi___VERIFIER_assert__cond___0:400:521:641|)
                                  (ite (<= (+ (- havoc) 1) 0) 1 0)) 0)
                          (= (+ (- |phi___VERIFIER_assert__cond___11:399:522:642|)
                                  __VERIFIER_assert__cond___11) 0)
                          (= (+ (- |phi___VERIFIER_assert__cond___12:398:523:643|)
                                  __VERIFIER_assert__cond___12) 0)
                          (= (+ (- |phi_main____CPAchecker_TMP_0___0:397:524:644|)
                                  main____CPAchecker_TMP_0___0) 0)
                          (= (+ (- |phi___VERIFIER_assert__cond___15:396:525:645|)
                                  __VERIFIER_assert__cond___15) 0)
                          (= (+ (- |phi___VERIFIER_assert__cond___16:395:526:646|)
                                  __VERIFIER_assert__cond___16) 0)
                          (= (+ (- |phi___VERIFIER_assert__cond___17:394:527:647|)
                                  __VERIFIER_assert__cond___17) 0)
                          (= (+ (- |phi___VERIFIER_assert__cond___18:393:528:648|)
                                  __VERIFIER_assert__cond___18) 0))
                     (and (= |havoc:3:62:635| 0)
                            (not (= (ite (<= (+ (- havoc) 1) 0) 1 0) 0))
                            (or (not (<= (- |K:165:166:173:226:529:649|) 0))
                                  (= (+ |main__t':147:167:174:227:530:650|
                                          (- |K:165:166:173:226:529:649|)) 0))
                            (or (not (and (<= (- |K:165:166:173:226:529:649|) 0)
                                            (<= |K:165:166:173:226:529:649| 0)))
                                  (= (+ |__VERIFIER_assert__cond___17':150:168:175:228:531:651|
                                          (- __VERIFIER_assert__cond___17)) 0))
                            (or (not (<= (+ (- |K:165:166:173:226:529:649|) 1) 0))
                                  (= (+ |__VERIFIER_assert__cond___17':150:168:175:228:531:651|
                                          -1) 0))
                            (or (not (and (<= (- |K:165:166:173:226:529:649|) 0)
                                            (<= |K:165:166:173:226:529:649| 0)))
                                  (= (+ |main____CPAchecker_TMP_0':148:169:176:229:532:652|
                                          (- |havoc:3:62:635|)) 0))
                            (or (not (<= (+ (- |K:165:166:173:226:529:649|) 1) 0))
                                  (= |main____CPAchecker_TMP_0':148:169:176:229:532:652| 0))
                            (or (not (and (<= (- |K:165:166:173:226:529:649|) 0)
                                            (<= |K:165:166:173:226:529:649| 0)))
                                  (= (+ |__tmp_383_0':146:170:177:230:533:653|
                                          (- |havoc:3:62:635|)) 0))
                            (or (not (<= (+ (- |K:165:166:173:226:529:649|) 1) 0))
                                  (= |__tmp_383_0':146:170:177:230:533:653| 0))
                            (or (not (and (<= (- |K:165:166:173:226:529:649|) 0)
                                            (<= |K:165:166:173:226:529:649| 0)))
                                  (= (+ |__VERIFIER_assert__cond___18':151:171:178:231:534:654|
                                          (- __VERIFIER_assert__cond___18)) 0))
                            (or (not (<= (+ (- |K:165:166:173:226:529:649|) 1) 0))
                                  (= (+ |__VERIFIER_assert__cond___18':151:171:178:231:534:654|
                                          -1) 0))
                            (or (not (and (<= (- |K:165:166:173:226:529:649|) 0)
                                            (<= |K:165:166:173:226:529:649| 0)))
                                  (= (+ |main____CPAchecker_TMP_0___0':149:172:179:232:535:655|
                                          (- main____CPAchecker_TMP_0___0)) 0))
                            (or (not (<= (+ (- |K:165:166:173:226:529:649|) 1) 0))
                                  (= |main____CPAchecker_TMP_0___0':149:172:179:232:535:655| 0))
                            (or (and (= |K:165:166:173:226:529:649| 0)
                                       (= (+ (- |__VERIFIER_assert__cond___18':151:171:178:231:534:654|)
                                               __VERIFIER_assert__cond___18) 0)
                                       (= (+ (- |__VERIFIER_assert__cond___17':150:168:175:228:531:651|)
                                               __VERIFIER_assert__cond___17) 0)
                                       (= (+ (- |main____CPAchecker_TMP_0___0':149:172:179:232:535:655|)
                                               main____CPAchecker_TMP_0___0) 0)
                                       (= (+ (- |main____CPAchecker_TMP_0':148:169:176:229:532:652|)
                                               |havoc:3:62:635|) 0)
                                       (= (- |main__t':147:167:174:227:530:650|) 0)
                                       (= (+ (- |__tmp_383_0':146:170:177:230:533:653|)
                                               |havoc:3:62:635|) 0))
                                  (and (<= (+ (- |K:165:166:173:226:529:649|)
                                                1) 0) (= |havoc:3:62:635| 0)
                                         (= |havoc:3:62:635| 0)
                                         (<= (+ (- havoc) 3) 0)
                                         (= (+ |__VERIFIER_assert__cond___18':151:171:178:231:534:654|
                                                 -1) 0)
                                         (= (+ |__VERIFIER_assert__cond___17':150:168:175:228:531:651|
                                                 -1) 0)
                                         (= |main____CPAchecker_TMP_0':148:169:176:229:532:652| 0)
                                         (= |main____CPAchecker_TMP_0___0':149:172:179:232:535:655| 0)
                                         (= |__tmp_383_0':146:170:177:230:533:653| 0)
                                         (<= (+ |main__t':147:167:174:227:530:650|
                                                  (- havoc) 2) 0)
                                         (<= (+ (- |main__t':147:167:174:227:530:650|)
                                                  1) 0)))
                            (<= (- |K:165:166:173:226:529:649|) 0)
                            (= |__tmp_383_0':146:170:177:230:533:653| 0)
                            (= |main____CPAchecker_TMP_0':148:169:176:229:532:652| 0)
                            (<= (- |main__t':147:167:174:227:530:650|) 0)
                            (< (+ (- havoc) 1) 0)
                            (= |__tmp_383_0':146:170:177:230:533:653| 0)
                            (= |main____CPAchecker_TMP_0':148:169:176:229:532:652| 0)
                            (not (= (+ |main__t':147:167:174:227:530:650|
                                         (- havoc) 2) 0))
                            (not (= |havoc:9:63:145:225:233:536:656| 0))
                            (not (= (ite (<= (+ (- |main__t':147:167:174:227:530:650|)
                                                  -1) 0)
                                         1 0) 0))
                            (not (= (ite (<= (+ |main__t':147:167:174:227:530:650|
                                                  (- havoc) 2) 0)
                                         1 0) 0))
                            (= (+ |__tmp_383_0':146:170:177:230:533:653|
                                    (- |phi___tmp_383_0:405:516:636|)) 0)
                            (= (+ |havoc:9:63:145:225:233:536:656|
                                    (- |phi___tmp_259_0:404:517:637|)) 0)
                            (= (+ |main__t':147:167:174:227:530:650|
                                    (- |phi_main__t:403:518:638|) 1) 0)
                            (= (+ |__tmp_383_0':146:170:177:230:533:653|
                                    (- |phi_main____CPAchecker_TMP_0:402:519:639|)) 0)
                            (= (+ __VERIFIER_assert__cond
                                    (- |phi___VERIFIER_assert__cond:401:520:640|)) 0)
                            (= (+ __VERIFIER_assert__cond___0
                                    (- |phi___VERIFIER_assert__cond___0:400:521:641|)) 0)
                            (= (+ (- |phi___VERIFIER_assert__cond___11:399:522:642|)
                                    1) 0)
                            (= (+ (- |phi___VERIFIER_assert__cond___12:398:523:643|)
                                    (ite (<= (+ (- havoc) 1) 0) 1 0)) 0)
                            (= (+ |havoc:9:63:145:225:233:536:656|
                                    (- |phi_main____CPAchecker_TMP_0___0:397:524:644|)) 0)
                            (= (+ (ite (<= (+ (- |main__t':147:167:174:227:530:650|)
                                                -1) 0)
                                       1 0)
                                    (- |phi___VERIFIER_assert__cond___15:396:525:645|)) 0)
                            (= (+ (ite (<= (+ |main__t':147:167:174:227:530:650|
                                                (- havoc) 2) 0)
                                       1 0)
                                    (- |phi___VERIFIER_assert__cond___16:395:526:646|)) 0)
                            (= (+ |__VERIFIER_assert__cond___17':150:168:175:228:531:651|
                                    (- |phi___VERIFIER_assert__cond___17:394:527:647|)) 0)
                            (= (+ |__VERIFIER_assert__cond___18':151:171:178:231:534:654|
                                    (- |phi___VERIFIER_assert__cond___18:393:528:648|)) 0)))
               (or (not (and (<= (- |K:381:382:615:657|) 0)
                               (<= |K:381:382:615:657| 0)))
                     (= (+ (- __VERIFIER_assert__cond___7)
                             |__VERIFIER_assert__cond___7':367:383:616:658|) 0))
               (or (not (<= (+ (- |K:381:382:615:657|) 1) 0))
                     (= (+ |__VERIFIER_assert__cond___7':367:383:616:658| -1) 0))
               (or (not (and (<= (- |K:381:382:615:657|) 0)
                               (<= |K:381:382:615:657| 0)))
                     (= (+ (- __VERIFIER_assert__cond___8)
                             |__VERIFIER_assert__cond___8':368:384:617:659|) 0))
               (or (not (<= (+ (- |K:381:382:615:657|) 1) 0))
                     (= (+ |__VERIFIER_assert__cond___8':368:384:617:659| -1) 0))
               (or (not (<= (- |K:381:382:615:657|) 0))
                     (<= (+ |main__t':147:385:618:660|
                              (* -2 |K:381:382:615:657|)
                              (- |phi_main__t:403:518:638|) -1) 0))
               (or (not (<= (- |K:381:382:615:657|) 0))
                     (<= (+ |main__t':147:385:618:660|
                              (* 2 |K:381:382:615:657|)
                              (- |phi_main__t:403:518:638|)
                              (- (* |K:381:382:615:657| havoc)) -1) 0))
               (or (not (<= (- |K:381:382:615:657|) 0))
                     (<= (+ (- |main__t':147:385:618:660|)
                              |K:381:382:615:657| |phi_main__t:403:518:638| 1) 0))
               (or (and (= |K:381:382:615:657| 0)
                          (= (+ (- |main____CPAchecker_TMP_6':369:386:619:661|)
                                  main____CPAchecker_TMP_6) 0)
                          (= (+ __VERIFIER_assert__cond___8
                                  (- |__VERIFIER_assert__cond___8':368:384:617:659|)) 0)
                          (= (+ __VERIFIER_assert__cond___7
                                  (- |__VERIFIER_assert__cond___7':367:383:616:658|)) 0)
                          (= (+ (- |__VERIFIER_assert__cond___4':366:387:620:662|)
                                  __VERIFIER_assert__cond___4) 0)
                          (= (+ (- |__VERIFIER_assert__cond___3':365:388:621:663|)
                                  __VERIFIER_assert__cond___3) 0)
                          (= (+ (- |main____CPAchecker_TMP_4':364:389:622:664|)
                                  main____CPAchecker_TMP_4) 0)
                          (= (+ (- |main____CPAchecker_TMP_3':363:390:623:665|)
                                  main____CPAchecker_TMP_3) 0)
                          (= (+ (- |main__t':147:385:618:660|)
                                  |phi_main__t:403:518:638| 1) 0))
                     (and (<= (+ (- |K:381:382:615:657|) 1) 0)
                            (<= (+ |phi_main__t:403:518:638| (- havoc) 3) 0)
                            (<= (- |phi_main__t:403:518:638|) 0)
                            (= (+ |__VERIFIER_assert__cond___8':368:384:617:659|
                                    -1) 0)
                            (= (+ |__VERIFIER_assert__cond___7':367:383:616:658|
                                    -1) 0)
                            (<= (+ |main__t':147:385:618:660| (- havoc) 1) 0)
                            (<= (+ (- |main__t':147:385:618:660|) 2) 0)))
               (<= (- |K:381:382:615:657|) 0)
               (< (- |main__t':147:385:618:660|) 0) (< (+ (- havoc) 1) 0)
               (not (= (+ |main__t':147:385:618:660| (- havoc) 1) 0))
               (or (and (not (= |havoc:28:64:341:624:666| 0))
                          (or (and (= |havoc:35:66:353:625:667| 0)
                                     (= (+ (- |phi_main__t:344:345:354:626:668|)
                                             |main__t':147:385:618:660|) 0)
                                     (= (+ (- |phi___VERIFIER_assert__cond___3:343:346:355:627:669|)
                                             |__VERIFIER_assert__cond___3':365:388:621:663|) 0)
                                     (= (+ (- |phi___VERIFIER_assert__cond___4:342:347:356:628:670|)
                                             |__VERIFIER_assert__cond___4':366:387:620:662|) 0))
                                (and (not (= |havoc:35:66:353:625:667| 0))
                                       (not (= (ite (<= (- |main__t':147:385:618:660|) 0)
                                                    1 0) 0))
                                       (not (= (ite (<= (+ |main__t':147:385:618:660|
                                                             (- havoc) 1) 0)
                                                    1 0) 0))
                                       (not (= (+ |main__t':147:385:618:660|
                                                    (- havoc) 2) 0))
                                       (= (+ (- |phi_main__t:344:345:354:626:668|)
                                               |main__t':147:385:618:660| 1) 0)
                                       (= (+ (ite (<= (- |main__t':147:385:618:660|) 0)
                                                  1 0)
                                               (- |phi___VERIFIER_assert__cond___3:343:346:355:627:669|)) 0)
                                       (= (+ (ite (<= (+ |main__t':147:385:618:660|
                                                           (- havoc) 1) 0)
                                                  1 0)
                                               (- |phi___VERIFIER_assert__cond___4:342:347:356:628:670|)) 0)))
                          (= (+ (- |phi_main__t:352:357:629:671|)
                                  |phi_main__t:344:345:354:626:668|) 0)
                          (= (+ (- |phi_main____CPAchecker_TMP_4:351:358:630:672|)
                                  |havoc:35:66:353:625:667|) 0)
                          (= (+ (- |phi___VERIFIER_assert__cond___3:350:359:631:673|)
                                  |phi___VERIFIER_assert__cond___3:343:346:355:627:669|) 0)
                          (= (+ (- |phi___VERIFIER_assert__cond___4:349:360:632:674|)
                                  |phi___VERIFIER_assert__cond___4:342:347:356:628:670|) 0)
                          (= (+ (- |phi_main____CPAchecker_TMP_6:348:361:633:675|)
                                  |main____CPAchecker_TMP_6':369:386:619:661|) 0))
                     (and (= |havoc:28:64:341:624:666| 0)
                            (= |havoc:29:65:362:634:676| 0)
                            (= (+ (- |phi_main__t:352:357:629:671|)
                                    |main__t':147:385:618:660|) 0)
                            (= (+ (- |phi_main____CPAchecker_TMP_4:351:358:630:672|)
                                    |main____CPAchecker_TMP_4':364:389:622:664|) 0)
                            (= (+ (- |phi___VERIFIER_assert__cond___3:350:359:631:673|)
                                    |__VERIFIER_assert__cond___3':365:388:621:663|) 0)
                            (= (+ (- |phi___VERIFIER_assert__cond___4:349:360:632:674|)
                                    |__VERIFIER_assert__cond___4':366:387:620:662|) 0)
                            (= (+ |havoc:29:65:362:634:676|
                                    (- |phi_main____CPAchecker_TMP_6:348:361:633:675|)) 0)))
               (not (= (ite (<= (- |phi_main__t:352:357:629:671|) 0) 1 0) 0))
               (= (ite (<= (+ |phi_main__t:352:357:629:671| (- havoc) 1) 0) 1
                       0) 0)))
(check-sat)
